(set-logic ALL)
(declare-var conf_0 (_ BitVec 32))
(declare-var conf_0! (_ BitVec 32))
(declare-var m (_ BitVec 32))
(declare-var m! (_ BitVec 32))
(declare-var n (_ BitVec 32))
(declare-var n! (_ BitVec 32))
(declare-var x (_ BitVec 32))
(declare-var x! (_ BitVec 32))
(declare-var tmp (_ BitVec 32))
(declare-var tmp! (_ BitVec 32))
(declare-var conf_0_0 (_ BitVec 32))
(declare-var conf_0_0! (_ BitVec 32))
(declare-var conf_0_1 (_ BitVec 32))
(declare-var conf_0_1! (_ BitVec 32))
(declare-var conf_0_2 (_ BitVec 32))
(declare-var conf_0_2! (_ BitVec 32))
(declare-var conf_0_3 (_ BitVec 32))
(declare-var conf_0_3! (_ BitVec 32))
(declare-var conf_0_4 (_ BitVec 32))
(declare-var conf_0_4! (_ BitVec 32))
(declare-var m_0 (_ BitVec 32))
(declare-var m_0! (_ BitVec 32))
(declare-var m_1 (_ BitVec 32))
(declare-var m_1! (_ BitVec 32))
(declare-var m_2 (_ BitVec 32))
(declare-var m_2! (_ BitVec 32))
(declare-var m_3 (_ BitVec 32))
(declare-var m_3! (_ BitVec 32))
(declare-var m_4 (_ BitVec 32))
(declare-var m_4! (_ BitVec 32))
(declare-var n_0 (_ BitVec 32))
(declare-var n_0! (_ BitVec 32))
(declare-var x_0 (_ BitVec 32))
(declare-var x_0! (_ BitVec 32))
(declare-var x_1 (_ BitVec 32))
(declare-var x_1! (_ BitVec 32))
(declare-var x_2 (_ BitVec 32))
(declare-var x_2! (_ BitVec 32))
(declare-var x_3 (_ BitVec 32))
(declare-var x_3! (_ BitVec 32))
(synth-fun inv-f((parameter0 (_ BitVec 32))(parameter1 (_ BitVec 32))(parameter2 (_ BitVec 32))(parameter3 (_ BitVec 32))(parameter4 (_ BitVec 32))(parameter5 (_ BitVec 32))(parameter6 (_ BitVec 32))(parameter7 (_ BitVec 32))(parameter8 (_ BitVec 32))(parameter9 (_ BitVec 32))(parameter10 (_ BitVec 32))(parameter11 (_ BitVec 32))(parameter12 (_ BitVec 32))(parameter13 (_ BitVec 32))(parameter14 (_ BitVec 32))(parameter15 (_ BitVec 32))(parameter16 (_ BitVec 32))(parameter17 (_ BitVec 32))(parameter18 (_ BitVec 32))(parameter19 (_ BitVec 32)))Bool) 
(constraint (=> (and (and (and (and (and (= conf_0 conf_0_0) (= m m_1) ) (= x x_1) ) (= conf_0_0 (_ bv8 32)) ) (= x_1 (_ bv1 32)) ) (= m_1 (_ bv1 32)) )(inv-f conf_0 m n x tmp conf_0_0 conf_0_1 conf_0_2 conf_0_3 conf_0_4 m_0 m_1 m_2 m_3 m_4 n_0 x_0 x_1 x_2 x_3 )))
(constraint (=> (and (inv-f conf_0 m n x tmp conf_0_0 conf_0_1 conf_0_2 conf_0_3 conf_0_4 m_0 m_1 m_2 m_3 m_4 n_0 x_0 x_1 x_2 x_3 ) (or (or (and (and (and (and (and (and (and (and (and (and (= conf_0_1 conf_0) (= m_2 m) ) (= x_2 x) ) (= conf_0_1 conf_0!) ) (= m_2 m!) ) (= x_2 x!) ) (= n n_0) ) (= n! n_0) ) (= conf_0 conf_0!) ) (= m m!) ) (= tmp tmp!) ) (and (and (and (and (and (and (and (and (and (and (and (and (and (and (and (= conf_0_1 conf_0) (= m_2 m) ) (= x_2 x) ) (bvult x_2 n_0) ) (= m_3 x_2) ) (= conf_0_2 (bvsub (_ bv807 32) conf_0_1)) ) (= conf_0_3 conf_0_2) ) (= m_4 m_3) ) (= x_3 (bvadd x_2 (_ bv1 32))) ) (= conf_0_4 (bvadd (_ bv715 32) (_ bv695 32))) ) (= conf_0_4 conf_0!) ) (= m_4 m!) ) (= x_3 x!) ) (= n n_0) ) (= n! n_0) ) (= tmp tmp!) ) ) (and (and (and (and (and (and (and (and (and (and (and (and (and (= conf_0_1 conf_0) (= m_2 m) ) (= x_2 x) ) (bvult x_2 n_0) ) (= conf_0_3 conf_0_1) ) (= m_4 m_2) ) (= x_3 (bvadd x_2 (_ bv1 32))) ) (= conf_0_4 (bvadd (_ bv715 32) (_ bv695 32))) ) (= conf_0_4 conf_0!) ) (= m_4 m!) ) (= x_3 x!) ) (= n n_0) ) (= n! n_0) ) (= tmp tmp!) ) ) )(inv-f conf_0! m! n! x! tmp! conf_0_0! conf_0_1! conf_0_2! conf_0_3! conf_0_4! m_0! m_1! m_2! m_3! m_4! n_0! x_0! x_1! x_2! x_3! )))
(constraint (=> (inv-f conf_0 m n x tmp conf_0_0 conf_0_1 conf_0_2 conf_0_3 conf_0_4 m_0 m_1 m_2 m_3 m_4 n_0 x_0 x_1 x_2 x_3 )(or (not (and (and (and (= conf_0 conf_0_1) (= m m_2) ) (= n n_0) ) (= x x_2) )) (not (and (and (not (bvult x_2 n_0)) (bvugt n_0 (_ bv1 32)) ) (not (bvuge m_2 (_ bv1 32))) )) )))
(check-synth)

